************************************************************************
file with basedata            : mm53_.bas
initial value random generator: 1907935190
************************************************************************
projects                      :  1
jobs (incl. supersource/sink ):  12
horizon                       :  70
RESOURCES
  - renewable                 :  2   R
  - nonrenewable              :  2   N
  - doubly constrained        :  0   D
************************************************************************
PROJECT INFORMATION:
pronr.  #jobs rel.date duedate tardcost  MPM-Time
    1     10      0        9        9        9
************************************************************************
PRECEDENCE RELATIONS:
jobnr.    #modes  #successors   successors
   0        1          3           1   2   3
   1        3          2           4   5
   2        3          2           4   9
   3        3          1           8
   4        3          2           6  10
   5        3          3           6   7   9
   6        3          1           8
   7        3          1          10
   8        3          1          11
   9        3          1          11
  10        3          1          11
  11        1          0        
************************************************************************
REQUESTS/DURATIONS:
jobnr. mode duration  R 1  R 2  R 3  R 4  E(W 1)  E(W 2)  E(W 3)
------------------------------------------------------------------------
  0      1     0       0    0    0    0     0       0       0
  1      1     1       6   10    3    7    16       3       7
  2      1     3       8    5    7    7    39      21      21
  3      1     1       3    9    7    9    12       7       9
  4      1     2       6   10    8    6    32      16      12
  5      1     1       6   10    8   10    16       8      10
  6      1     1       6    6    3    9    12       3       9
  7      1     4      10    7    5    5    68      20      20
  8      1     3       6    7    9    6    39      27      18
  9      1     1      10    9    4    7    19       4       7
 10      1     2      10    2    7    5    24      14      10
 11      1     0       0    0    0    0     0       0       0
************************************************************************
RESOURCEAVAILABILITIES:
  R 1  R 2  R 3
   42   46   52
************************************************************************
RESOURCE LIMITS:
jobnr.  l(R 1)  u(R 1)  l(R 2)  u(R 2)  l(R 3)  u(R 3)
------------------------------------------------------------------------
  0        0       0       0       0       0       0
  1        8      16       2       3       4       7
  2        7      13       4       7       4       7
  3        7      12       4       7       5       9
  4        8      16       4       8       3       6
  5        8      16       4       8       5      10
  6        6      12       2       3       5       9
  7        9      17       3       5       3       5
  8        7      13       5       9       3       6
  9       10      19       2       4       4       7
 10        6      12       4       7       3       5
 11        0       0       0       0       0       0
************************************************************************
SCENARIOS:
------------------------------------------------------------------------
RESOURCE k = 1
s = 1: (0, 15, 25, 10, 20, 16, 17, 93, 38, 38, 27, 0)
s = 2: (0, 31, 40, 8, 32, 16, 12, 56, 52, 27, 24, 0)
s = 3: (0, 24, 63, 11, 34, 16, 10, 86, 30, 12, 28, 0)
s = 4: (0, 21, 55, 7, 30, 13, 12, 53, 29, 18, 32, 0)
s = 5: (0, 11, 35, 12, 45, 15, 8, 40, 31, 27, 25, 0)
s = 6: (0, 16, 39, 8, 38, 9, 11, 87, 43, 17, 26, 0)
s = 7: (0, 18, 53, 16, 28, 15, 8, 48, 28, 22, 22, 0)
s = 8: (0, 20, 67, 12, 40, 22, 7, 113, 39, 19, 23, 0)
s = 9: (0, 18, 51, 15, 32, 23, 18, 107, 32, 17, 30, 0)
s = 10: (0, 15, 58, 11, 37, 17, 15, 96, 30, 29, 17, 0)
s = 11: (0, 16, 26, 16, 26, 16, 8, 72, 66, 21, 24, 0)
s = 12: (0, 19, 44, 16, 42, 15, 17, 88, 32, 18, 34, 0)
s = 13: (0, 21, 27, 11, 17, 11, 14, 68, 59, 21, 25, 0)
s = 14: (0, 22, 58, 12, 31, 14, 9, 89, 25, 15, 30, 0)
s = 15: (0, 11, 38, 7, 25, 12, 15, 48, 46, 22, 16, 0)
s = 16: (0, 15, 44, 17, 42, 14, 13, 46, 37, 26, 16, 0)
s = 17: (0, 26, 41, 16, 30, 18, 22, 79, 45, 20, 19, 0)
s = 18: (0, 20, 54, 16, 21, 24, 16, 64, 32, 23, 27, 0)
s = 19: (0, 17, 47, 14, 35, 9, 14, 64, 67, 11, 15, 0)
s = 20: (0, 14, 49, 15, 29, 28, 11, 45, 58, 16, 25, 0)
s = 21: (0, 16, 57, 11, 33, 18, 15, 39, 46, 22, 19, 0)
s = 22: (0, 11, 52, 10, 20, 11, 8, 44, 36, 20, 35, 0)
s = 23: (0, 18, 34, 15, 25, 14, 11, 90, 34, 12, 26, 0)
s = 24: (0, 25, 49, 8, 50, 21, 14, 51, 35, 14, 28, 0)
s = 25: (0, 25, 39, 9, 30, 17, 10, 63, 45, 18, 28, 0)
s = 26: (0, 18, 40, 8, 25, 15, 11, 64, 22, 22, 24, 0)
s = 27: (0, 17, 30, 14, 39, 10, 15, 90, 36, 13, 32, 0)
s = 28: (0, 16, 53, 15, 31, 14, 15, 64, 45, 24, 19, 0)
s = 29: (0, 19, 45, 10, 25, 19, 9, 53, 49, 11, 29, 0)
s = 30: (0, 15, 32, 13, 43, 17, 9, 79, 61, 24, 21, 0)
s = 31: (0, 9, 33, 16, 21, 18, 7, 48, 47, 22, 26, 0)
s = 32: (0, 27, 42, 8, 46, 9, 11, 84, 39, 24, 25, 0)
s = 33: (0, 15, 34, 13, 54, 15, 18, 40, 39, 11, 23, 0)
s = 34: (0, 26, 51, 12, 38, 15, 14, 46, 30, 13, 26, 0)
s = 35: (0, 23, 54, 16, 47, 19, 10, 97, 38, 14, 21, 0)
s = 36: (0, 13, 58, 10, 23, 14, 15, 42, 26, 12, 28, 0)
s = 37: (0, 11, 45, 10, 30, 17, 8, 55, 52, 24, 24, 0)
s = 38: (0, 21, 25, 12, 24, 23, 13, 41, 32, 14, 19, 0)
s = 39: (0, 14, 42, 16, 40, 12, 7, 57, 31, 19, 29, 0)
s = 40: (0, 22, 36, 17, 25, 18, 13, 40, 39, 24, 28, 0)
s = 41: (0, 26, 25, 18, 21, 14, 20, 51, 47, 23, 37, 0)
s = 42: (0, 15, 37, 11, 36, 15, 14, 65, 52, 19, 21, 0)
s = 43: (0, 15, 46, 10, 23, 14, 12, 64, 70, 31, 25, 0)
s = 44: (0, 14, 36, 8, 34, 16, 10, 71, 31, 16, 20, 0)
s = 45: (0, 21, 44, 16, 32, 14, 14, 40, 54, 17, 21, 0)
s = 46: (0, 19, 33, 12, 18, 16, 9, 57, 27, 20, 18, 0)
s = 47: (0, 31, 36, 9, 34, 13, 10, 73, 58, 21, 28, 0)
s = 48: (0, 10, 43, 13, 24, 16, 8, 59, 37, 12, 28, 0)
s = 49: (0, 23, 44, 10, 41, 21, 14, 68, 28, 22, 23, 0)
s = 50: (0, 13, 62, 8, 18, 25, 11, 43, 31, 16, 23, 0)
s = 51: (0, 16, 29, 14, 25, 17, 15, 118, 45, 18, 22, 0)
s = 52: (0, 13, 49, 15, 25, 12, 12, 68, 53, 27, 24, 0)
s = 53: (0, 16, 23, 16, 43, 19, 12, 99, 42, 13, 22, 0)
s = 54: (0, 15, 66, 17, 42, 18, 14, 71, 33, 21, 23, 0)
s = 55: (0, 27, 31, 16, 32, 20, 14, 69, 46, 21, 16, 0)
s = 56: (0, 12, 53, 8, 36, 20, 9, 66, 27, 18, 44, 0)
s = 57: (0, 18, 49, 12, 22, 11, 8, 52, 44, 23, 25, 0)
s = 58: (0, 10, 21, 10, 39, 13, 8, 98, 35, 21, 15, 0)
s = 59: (0, 15, 35, 7, 37, 13, 12, 46, 33, 36, 21, 0)
s = 60: (0, 18, 25, 7, 25, 19, 11, 82, 36, 13, 16, 0)
s = 61: (0, 11, 28, 8, 23, 15, 13, 91, 62, 16, 24, 0)
s = 62: (0, 15, 56, 15, 32, 18, 12, 103, 40, 16, 21, 0)
s = 63: (0, 15, 34, 10, 37, 13, 9, 54, 44, 23, 17, 0)
s = 64: (0, 19, 23, 8, 30, 16, 8, 54, 43, 27, 16, 0)
s = 65: (0, 14, 42, 14, 38, 11, 11, 80, 26, 15, 19, 0)
s = 66: (0, 24, 32, 8, 24, 17, 12, 70, 41, 21, 20, 0)
s = 67: (0, 14, 43, 16, 35, 25, 9, 45, 45, 26, 14, 0)
s = 68: (0, 23, 72, 18, 38, 22, 15, 70, 53, 21, 21, 0)
s = 69: (0, 9, 23, 8, 24, 12, 16, 67, 55, 18, 28, 0)
s = 70: (0, 15, 34, 14, 24, 12, 12, 120, 34, 25, 15, 0)
s = 71: (0, 17, 34, 11, 21, 15, 17, 57, 62, 12, 26, 0)
s = 72: (0, 26, 27, 7, 32, 16, 14, 65, 45, 13, 23, 0)
s = 73: (0, 9, 37, 14, 30, 15, 13, 60, 39, 22, 16, 0)
s = 74: (0, 15, 41, 14, 35, 10, 21, 99, 44, 21, 16, 0)
s = 75: (0, 14, 29, 10, 22, 17, 15, 81, 38, 33, 26, 0)
s = 76: (0, 16, 27, 14, 34, 18, 15, 52, 49, 19, 20, 0)
s = 77: (0, 22, 30, 7, 23, 22, 13, 57, 34, 20, 28, 0)
s = 78: (0, 22, 44, 14, 27, 12, 14, 68, 75, 30, 27, 0)
s = 79: (0, 13, 46, 9, 32, 9, 14, 42, 30, 23, 17, 0)
s = 80: (0, 20, 56, 15, 36, 20, 14, 53, 33, 19, 22, 0)
s = 81: (0, 25, 69, 11, 25, 17, 10, 98, 38, 26, 23, 0)
s = 82: (0, 17, 40, 14, 33, 11, 13, 53, 38, 25, 23, 0)
s = 83: (0, 19, 23, 8, 47, 11, 12, 59, 31, 11, 31, 0)
s = 84: (0, 14, 50, 10, 33, 16, 8, 48, 24, 19, 16, 0)
s = 85: (0, 12, 30, 17, 28, 27, 11, 38, 29, 24, 16, 0)
s = 86: (0, 11, 45, 10, 22, 14, 15, 69, 34, 21, 28, 0)
s = 87: (0, 19, 23, 15, 31, 13, 10, 76, 51, 22, 29, 0)
s = 88: (0, 15, 28, 23, 41, 15, 9, 71, 28, 17, 31, 0)
s = 89: (0, 13, 50, 17, 33, 14, 11, 45, 30, 19, 18, 0)
s = 90: (0, 19, 51, 13, 26, 26, 15, 62, 30, 17, 17, 0)
s = 91: (0, 13, 33, 11, 44, 24, 13, 81, 54, 33, 15, 0)
s = 92: (0, 19, 32, 11, 37, 10, 10, 65, 24, 13, 26, 0)
s = 93: (0, 13, 45, 10, 19, 19, 10, 87, 41, 11, 26, 0)
s = 94: (0, 10, 43, 12, 26, 14, 13, 45, 53, 31, 35, 0)
s = 95: (0, 16, 43, 16, 35, 13, 9, 43, 34, 12, 23, 0)
s = 96: (0, 11, 36, 11, 29, 12, 20, 47, 35, 16, 30, 0)
s = 97: (0, 14, 25, 14, 34, 24, 11, 77, 27, 20, 37, 0)
s = 98: (0, 9, 36, 13, 34, 24, 18, 64, 55, 30, 19, 0)
s = 99: (0, 9, 29, 10, 41, 17, 13, 58, 59, 24, 26, 0)
s = 100: (0, 14, 59, 12, 39, 24, 10, 68, 25, 11, 15, 0)
s = 101: (0, 9, 53, 17, 32, 14, 13, 53, 31, 17, 19, 0)
s = 102: (0, 12, 26, 8, 28, 20, 10, 98, 30, 13, 33, 0)
s = 103: (0, 14, 46, 8, 35, 21, 9, 70, 47, 14, 17, 0)
s = 104: (0, 19, 57, 15, 28, 15, 12, 84, 38, 21, 24, 0)
s = 105: (0, 11, 39, 9, 24, 25, 16, 57, 25, 20, 18, 0)
s = 106: (0, 20, 36, 13, 51, 22, 13, 67, 51, 24, 38, 0)
s = 107: (0, 21, 63, 10, 35, 18, 20, 70, 25, 19, 32, 0)
s = 108: (0, 23, 25, 11, 37, 19, 10, 51, 25, 14, 22, 0)
s = 109: (0, 14, 39, 11, 33, 16, 10, 49, 30, 21, 16, 0)
s = 110: (0, 21, 36, 16, 38, 25, 9, 70, 22, 23, 22, 0)
s = 111: (0, 12, 32, 10, 59, 14, 16, 59, 36, 15, 32, 0)
s = 112: (0, 12, 36, 10, 45, 16, 23, 66, 30, 17, 29, 0)
s = 113: (0, 12, 30, 9, 19, 20, 9, 54, 41, 19, 30, 0)
s = 114: (0, 13, 31, 17, 26, 18, 16, 44, 42, 18, 20, 0)
s = 115: (0, 24, 50, 11, 22, 18, 16, 45, 46, 23, 16, 0)
s = 116: (0, 22, 31, 9, 21, 15, 12, 99, 59, 25, 39, 0)
s = 117: (0, 10, 45, 11, 27, 12, 21, 57, 46, 19, 22, 0)
s = 118: (0, 12, 32, 8, 42, 16, 10, 73, 47, 16, 27, 0)
s = 119: (0, 15, 32, 9, 55, 19, 11, 56, 37, 30, 28, 0)
s = 120: (0, 20, 37, 17, 43, 18, 9, 89, 44, 26, 30, 0)
s = 121: (0, 15, 36, 10, 43, 10, 9, 125, 42, 27, 18, 0)
s = 122: (0, 11, 34, 13, 29, 12, 10, 66, 46, 20, 17, 0)
s = 123: (0, 22, 32, 9, 30, 28, 13, 81, 30, 27, 19, 0)
s = 124: (0, 13, 31, 15, 21, 13, 22, 80, 24, 14, 17, 0)
s = 125: (0, 14, 36, 9, 47, 11, 14, 75, 60, 19, 30, 0)
s = 126: (0, 10, 42, 13, 38, 19, 12, 68, 36, 24, 22, 0)
s = 127: (0, 22, 60, 13, 29, 24, 9, 69, 24, 15, 17, 0)
s = 128: (0, 13, 43, 11, 19, 23, 16, 70, 32, 14, 36, 0)
s = 129: (0, 11, 38, 10, 19, 28, 15, 100, 27, 34, 18, 0)
s = 130: (0, 12, 34, 16, 45, 21, 10, 79, 39, 19, 32, 0)
s = 131: (0, 16, 30, 10, 29, 17, 15, 89, 42, 15, 15, 0)
s = 132: (0, 18, 22, 15, 18, 15, 8, 115, 40, 21, 17, 0)
s = 133: (0, 17, 44, 11, 36, 14, 10, 56, 28, 15, 32, 0)
s = 134: (0, 11, 42, 18, 32, 17, 17, 107, 26, 20, 31, 0)
s = 135: (0, 11, 36, 15, 28, 18, 14, 69, 59, 14, 22, 0)
s = 136: (0, 13, 45, 11, 25, 13, 10, 45, 31, 29, 31, 0)
s = 137: (0, 23, 54, 12, 25, 19, 11, 59, 37, 21, 22, 0)
s = 138: (0, 14, 50, 12, 28, 12, 12, 67, 68, 18, 30, 0)
s = 139: (0, 11, 60, 10, 31, 18, 12, 46, 24, 18, 24, 0)
s = 140: (0, 17, 48, 22, 32, 16, 19, 82, 40, 16, 33, 0)
s = 141: (0, 18, 44, 12, 40, 14, 17, 48, 51, 25, 25, 0)
s = 142: (0, 12, 41, 12, 37, 22, 9, 76, 60, 29, 15, 0)
s = 143: (0, 19, 32, 10, 22, 30, 12, 75, 47, 22, 25, 0)
s = 144: (0, 22, 40, 9, 34, 17, 14, 45, 23, 28, 26, 0)
s = 145: (0, 18, 30, 10, 38, 25, 15, 85, 51, 22, 23, 0)
s = 146: (0, 13, 76, 20, 50, 15, 22, 60, 42, 30, 20, 0)
s = 147: (0, 24, 52, 12, 46, 13, 15, 37, 32, 13, 25, 0)
s = 148: (0, 12, 50, 14, 40, 15, 9, 64, 40, 17, 33, 0)
s = 149: (0, 15, 28, 14, 31, 10, 13, 66, 28, 17, 29, 0)
s = 150: (0, 19, 36, 16, 29, 13, 8, 88, 37, 23, 22, 0)
s = 151: (0, 20, 44, 11, 48, 15, 8, 57, 28, 11, 38, 0)
s = 152: (0, 18, 35, 15, 23, 23, 12, 54, 35, 19, 28, 0)
s = 153: (0, 21, 68, 11, 43, 26, 12, 70, 51, 19, 21, 0)
s = 154: (0, 11, 35, 13, 18, 26, 9, 90, 25, 13, 13, 0)
s = 155: (0, 13, 48, 10, 39, 10, 17, 61, 26, 20, 19, 0)
s = 156: (0, 12, 25, 12, 38, 11, 13, 73, 58, 13, 37, 0)
s = 157: (0, 28, 41, 13, 22, 16, 14, 41, 48, 18, 25, 0)
s = 158: (0, 11, 34, 12, 48, 15, 14, 73, 44, 21, 19, 0)
s = 159: (0, 20, 30, 18, 28, 10, 10, 50, 36, 22, 32, 0)
s = 160: (0, 19, 40, 9, 29, 17, 8, 53, 29, 15, 40, 0)
s = 161: (0, 13, 28, 18, 18, 27, 19, 77, 28, 25, 24, 0)
s = 162: (0, 21, 29, 9, 37, 20, 10, 105, 31, 24, 26, 0)
s = 163: (0, 13, 35, 9, 31, 24, 9, 75, 39, 27, 19, 0)
s = 164: (0, 15, 31, 11, 25, 25, 8, 72, 40, 17, 33, 0)
s = 165: (0, 20, 29, 8, 27, 19, 14, 54, 59, 20, 29, 0)
s = 166: (0, 13, 40, 13, 34, 14, 9, 76, 30, 23, 34, 0)
s = 167: (0, 25, 46, 12, 22, 14, 10, 83, 38, 21, 24, 0)
s = 168: (0, 12, 43, 13, 31, 19, 12, 103, 30, 22, 20, 0)
s = 169: (0, 9, 52, 18, 24, 14, 13, 40, 40, 17, 17, 0)
s = 170: (0, 14, 45, 11, 33, 10, 12, 70, 51, 23, 27, 0)
s = 171: (0, 23, 47, 20, 39, 10, 17, 73, 35, 19, 34, 0)
s = 172: (0, 13, 30, 10, 32, 22, 15, 94, 21, 12, 21, 0)
s = 173: (0, 18, 29, 11, 42, 16, 15, 77, 25, 29, 22, 0)
s = 174: (0, 18, 58, 9, 45, 18, 18, 61, 29, 16, 16, 0)
s = 175: (0, 15, 45, 15, 17, 14, 13, 70, 40, 13, 20, 0)
s = 176: (0, 12, 30, 11, 40, 15, 11, 53, 47, 16, 24, 0)
s = 177: (0, 19, 26, 13, 46, 12, 9, 66, 36, 23, 28, 0)
s = 178: (0, 15, 49, 12, 19, 11, 14, 65, 28, 17, 30, 0)
s = 179: (0, 9, 43, 11, 31, 13, 18, 37, 38, 20, 21, 0)
s = 180: (0, 17, 33, 11, 48, 13, 9, 45, 33, 25, 41, 0)
s = 181: (0, 20, 31, 13, 37, 20, 22, 64, 33, 22, 35, 0)
s = 182: (0, 24, 29, 13, 22, 15, 13, 58, 29, 18, 21, 0)
s = 183: (0, 17, 27, 14, 20, 19, 18, 44, 50, 26, 20, 0)
s = 184: (0, 29, 47, 13, 31, 11, 14, 78, 27, 21, 22, 0)
s = 185: (0, 19, 51, 18, 50, 23, 16, 107, 45, 30, 34, 0)
s = 186: (0, 22, 51, 13, 27, 21, 15, 49, 34, 24, 33, 0)
s = 187: (0, 18, 31, 17, 43, 17, 9, 113, 36, 24, 18, 0)
s = 188: (0, 22, 38, 13, 20, 21, 22, 78, 38, 14, 29, 0)
s = 189: (0, 14, 71, 14, 40, 22, 12, 68, 45, 27, 35, 0)
s = 190: (0, 26, 40, 14, 32, 13, 14, 97, 59, 16, 22, 0)
s = 191: (0, 15, 21, 17, 29, 15, 14, 49, 38, 17, 24, 0)
s = 192: (0, 17, 50, 10, 31, 10, 7, 64, 24, 14, 20, 0)
s = 193: (0, 26, 35, 13, 30, 19, 10, 79, 26, 18, 18, 0)
s = 194: (0, 22, 28, 16, 40, 13, 14, 77, 36, 18, 37, 0)
s = 195: (0, 24, 51, 17, 46, 17, 12, 66, 45, 21, 30, 0)
s = 196: (0, 13, 34, 11, 39, 19, 13, 57, 26, 17, 38, 0)
s = 197: (0, 21, 56, 12, 25, 12, 18, 52, 50, 17, 27, 0)
s = 198: (0, 12, 46, 11, 21, 11, 13, 45, 54, 16, 17, 0)
s = 199: (0, 17, 37, 12, 46, 15, 8, 83, 26, 20, 24, 0)
s = 200: (0, 10, 47, 10, 26, 11, 13, 47, 28, 19, 18, 0)
------------------------------------------------------------------------
RESOURCE k = 2
s = 1: (0, 3, 14, 6, 10, 8, 5, 28, 26, 8, 16, 0)
s = 2: (0, 6, 22, 5, 16, 8, 3, 17, 36, 6, 14, 0)
s = 3: (0, 5, 34, 7, 17, 8, 3, 26, 21, 3, 16, 0)
s = 4: (0, 4, 30, 4, 15, 7, 3, 16, 20, 4, 19, 0)
s = 5: (0, 2, 19, 7, 23, 8, 2, 12, 22, 6, 15, 0)
s = 6: (0, 3, 21, 5, 19, 5, 3, 26, 30, 4, 16, 0)
s = 7: (0, 4, 29, 10, 14, 8, 2, 14, 20, 5, 13, 0)
s = 8: (0, 4, 36, 7, 20, 11, 2, 34, 27, 4, 13, 0)
s = 9: (0, 4, 28, 9, 16, 12, 5, 32, 22, 4, 18, 0)
s = 10: (0, 3, 31, 7, 19, 9, 4, 28, 21, 6, 10, 0)
s = 11: (0, 3, 14, 10, 13, 8, 2, 22, 46, 5, 14, 0)
s = 12: (0, 4, 24, 9, 21, 8, 5, 26, 22, 4, 20, 0)
s = 13: (0, 4, 15, 7, 9, 6, 4, 20, 41, 5, 15, 0)
s = 14: (0, 5, 32, 7, 16, 7, 3, 26, 17, 4, 17, 0)
s = 15: (0, 2, 21, 4, 13, 6, 4, 14, 32, 5, 10, 0)
s = 16: (0, 3, 24, 10, 21, 7, 4, 14, 25, 6, 10, 0)
s = 17: (0, 5, 22, 10, 15, 9, 6, 24, 31, 5, 12, 0)
s = 18: (0, 4, 29, 10, 11, 12, 4, 19, 22, 5, 16, 0)
s = 19: (0, 4, 26, 9, 18, 5, 4, 19, 47, 3, 9, 0)
s = 20: (0, 3, 27, 9, 15, 14, 3, 14, 40, 4, 15, 0)
s = 21: (0, 3, 31, 6, 17, 9, 4, 12, 32, 5, 11, 0)
s = 22: (0, 2, 28, 6, 10, 6, 2, 13, 25, 5, 21, 0)
s = 23: (0, 4, 18, 9, 13, 7, 3, 27, 24, 3, 16, 0)
s = 24: (0, 5, 27, 5, 25, 11, 4, 15, 25, 3, 17, 0)
s = 25: (0, 5, 21, 6, 15, 9, 3, 19, 32, 4, 17, 0)
s = 26: (0, 4, 22, 5, 13, 8, 3, 19, 15, 5, 14, 0)
s = 27: (0, 4, 17, 9, 20, 5, 4, 27, 25, 3, 19, 0)
s = 28: (0, 3, 29, 9, 16, 7, 4, 19, 32, 6, 12, 0)
s = 29: (0, 4, 24, 6, 13, 10, 3, 16, 34, 3, 17, 0)
s = 30: (0, 3, 18, 8, 22, 9, 3, 24, 43, 5, 12, 0)
s = 31: (0, 2, 18, 10, 11, 9, 2, 14, 33, 5, 15, 0)
s = 32: (0, 5, 23, 5, 23, 5, 3, 25, 27, 6, 15, 0)
s = 33: (0, 3, 19, 8, 27, 8, 5, 12, 27, 3, 14, 0)
s = 34: (0, 5, 28, 7, 19, 8, 4, 14, 21, 3, 15, 0)
s = 35: (0, 5, 29, 10, 24, 10, 3, 29, 27, 3, 12, 0)
s = 36: (0, 3, 32, 6, 12, 7, 4, 13, 18, 3, 16, 0)
s = 37: (0, 3, 24, 6, 15, 9, 2, 16, 36, 5, 14, 0)
s = 38: (0, 4, 14, 7, 12, 12, 4, 13, 22, 3, 11, 0)
s = 39: (0, 3, 23, 9, 20, 6, 2, 17, 21, 4, 17, 0)
s = 40: (0, 4, 19, 10, 13, 9, 4, 12, 27, 5, 17, 0)
s = 41: (0, 5, 14, 11, 11, 7, 5, 15, 33, 5, 22, 0)
s = 42: (0, 3, 20, 7, 18, 8, 4, 20, 36, 4, 12, 0)
s = 43: (0, 3, 25, 6, 12, 7, 3, 19, 49, 7, 15, 0)
s = 44: (0, 3, 20, 5, 17, 8, 3, 21, 22, 4, 12, 0)
s = 45: (0, 4, 24, 10, 16, 7, 4, 12, 37, 4, 13, 0)
s = 46: (0, 4, 18, 7, 9, 8, 3, 17, 19, 5, 11, 0)
s = 47: (0, 6, 19, 6, 17, 7, 3, 22, 40, 5, 16, 0)
s = 48: (0, 2, 24, 8, 12, 8, 2, 18, 25, 3, 17, 0)
s = 49: (0, 5, 24, 6, 21, 11, 4, 20, 20, 5, 14, 0)
s = 50: (0, 3, 34, 5, 9, 13, 3, 13, 21, 4, 14, 0)
s = 51: (0, 3, 16, 8, 13, 9, 4, 35, 31, 4, 13, 0)
s = 52: (0, 3, 27, 9, 13, 6, 3, 20, 37, 6, 14, 0)
s = 53: (0, 3, 13, 10, 22, 10, 3, 29, 29, 3, 13, 0)
s = 54: (0, 3, 36, 10, 21, 9, 4, 21, 23, 5, 14, 0)
s = 55: (0, 6, 17, 9, 16, 10, 4, 21, 32, 5, 10, 0)
s = 56: (0, 3, 29, 5, 18, 10, 3, 20, 19, 4, 26, 0)
s = 57: (0, 4, 27, 7, 11, 6, 2, 16, 31, 5, 15, 0)
s = 58: (0, 2, 12, 6, 20, 7, 2, 29, 24, 5, 9, 0)
s = 59: (0, 3, 19, 4, 19, 7, 3, 14, 23, 8, 13, 0)
s = 60: (0, 4, 14, 4, 13, 10, 3, 24, 25, 3, 9, 0)
s = 61: (0, 2, 15, 5, 12, 8, 4, 27, 43, 4, 14, 0)
s = 62: (0, 3, 30, 9, 16, 9, 3, 31, 28, 4, 13, 0)
s = 63: (0, 3, 19, 6, 19, 7, 3, 16, 30, 5, 10, 0)
s = 64: (0, 4, 12, 5, 15, 8, 2, 16, 30, 6, 10, 0)
s = 65: (0, 3, 23, 8, 19, 6, 3, 24, 18, 4, 11, 0)
s = 66: (0, 5, 17, 5, 12, 9, 3, 21, 29, 5, 12, 0)
s = 67: (0, 3, 23, 9, 18, 13, 3, 14, 31, 6, 9, 0)
s = 68: (0, 5, 39, 10, 19, 11, 4, 21, 37, 5, 12, 0)
s = 69: (0, 2, 12, 5, 12, 6, 4, 20, 38, 4, 16, 0)
s = 70: (0, 3, 18, 8, 12, 6, 3, 36, 24, 6, 9, 0)
s = 71: (0, 4, 19, 7, 11, 8, 5, 17, 43, 3, 15, 0)
s = 72: (0, 5, 15, 4, 16, 8, 4, 19, 31, 3, 14, 0)
s = 73: (0, 2, 20, 9, 15, 8, 4, 18, 27, 5, 10, 0)
s = 74: (0, 3, 22, 8, 18, 5, 6, 29, 30, 5, 10, 0)
s = 75: (0, 3, 16, 6, 11, 9, 4, 24, 27, 7, 16, 0)
s = 76: (0, 3, 15, 8, 17, 9, 4, 16, 34, 4, 12, 0)
s = 77: (0, 5, 16, 5, 12, 11, 4, 17, 24, 5, 17, 0)
s = 78: (0, 4, 24, 8, 14, 6, 4, 20, 52, 7, 16, 0)
s = 79: (0, 3, 25, 5, 16, 5, 4, 13, 21, 5, 10, 0)
s = 80: (0, 4, 30, 9, 18, 10, 4, 16, 23, 4, 13, 0)
s = 81: (0, 5, 38, 6, 13, 9, 3, 29, 27, 6, 13, 0)
s = 82: (0, 4, 22, 8, 17, 6, 4, 16, 26, 6, 14, 0)
s = 83: (0, 4, 13, 5, 24, 6, 3, 18, 22, 3, 18, 0)
s = 84: (0, 3, 27, 6, 17, 8, 2, 15, 17, 4, 9, 0)
s = 85: (0, 3, 17, 10, 14, 14, 3, 12, 20, 5, 10, 0)
s = 86: (0, 3, 24, 6, 11, 7, 4, 21, 24, 5, 17, 0)
s = 87: (0, 4, 13, 9, 16, 7, 3, 23, 35, 5, 17, 0)
s = 88: (0, 3, 16, 14, 21, 8, 3, 21, 19, 4, 18, 0)
s = 89: (0, 3, 27, 10, 17, 7, 3, 14, 21, 4, 10, 0)
s = 90: (0, 4, 28, 8, 13, 13, 4, 19, 21, 4, 10, 0)
s = 91: (0, 3, 18, 7, 22, 12, 4, 24, 38, 7, 9, 0)
s = 92: (0, 4, 18, 7, 19, 5, 3, 20, 17, 3, 16, 0)
s = 93: (0, 3, 25, 6, 10, 10, 3, 26, 29, 3, 15, 0)
s = 94: (0, 2, 24, 7, 13, 7, 4, 14, 37, 7, 21, 0)
s = 95: (0, 3, 23, 10, 18, 7, 3, 13, 24, 3, 14, 0)
s = 96: (0, 2, 19, 7, 15, 6, 5, 14, 24, 4, 18, 0)
s = 97: (0, 3, 14, 8, 17, 12, 3, 23, 19, 5, 22, 0)
s = 98: (0, 2, 19, 8, 17, 12, 5, 19, 38, 7, 12, 0)
s = 99: (0, 2, 16, 6, 21, 9, 4, 17, 41, 5, 16, 0)
s = 100: (0, 3, 32, 7, 20, 12, 3, 20, 18, 3, 9, 0)
s = 101: (0, 2, 29, 10, 16, 7, 4, 16, 22, 4, 11, 0)
s = 102: (0, 3, 14, 5, 14, 10, 3, 29, 21, 3, 20, 0)
s = 103: (0, 3, 25, 5, 18, 11, 3, 21, 32, 3, 10, 0)
s = 104: (0, 4, 31, 9, 14, 8, 3, 25, 27, 5, 14, 0)
s = 105: (0, 3, 21, 5, 12, 13, 4, 17, 17, 5, 11, 0)
s = 106: (0, 4, 20, 8, 26, 11, 4, 20, 36, 5, 22, 0)
s = 107: (0, 4, 34, 6, 18, 9, 5, 21, 18, 4, 19, 0)
s = 108: (0, 5, 13, 7, 19, 10, 3, 15, 17, 3, 13, 0)
s = 109: (0, 3, 21, 7, 17, 8, 3, 15, 21, 5, 10, 0)
s = 110: (0, 4, 20, 9, 19, 13, 3, 21, 15, 5, 13, 0)
s = 111: (0, 3, 17, 6, 30, 7, 4, 18, 25, 4, 19, 0)
s = 112: (0, 3, 20, 6, 23, 8, 6, 20, 21, 4, 17, 0)
s = 113: (0, 3, 16, 6, 10, 10, 3, 16, 28, 4, 18, 0)
s = 114: (0, 3, 17, 10, 13, 9, 4, 13, 29, 4, 12, 0)
s = 115: (0, 5, 27, 7, 11, 9, 4, 14, 32, 5, 10, 0)
s = 116: (0, 4, 17, 5, 11, 8, 3, 30, 41, 6, 23, 0)
s = 117: (0, 2, 24, 6, 14, 6, 6, 17, 32, 4, 13, 0)
s = 118: (0, 3, 17, 5, 21, 8, 3, 22, 33, 4, 16, 0)
s = 119: (0, 3, 18, 5, 28, 10, 3, 17, 26, 7, 17, 0)
s = 120: (0, 4, 20, 10, 22, 9, 3, 26, 30, 6, 18, 0)
s = 121: (0, 3, 20, 6, 22, 5, 3, 37, 29, 6, 11, 0)
s = 122: (0, 2, 19, 8, 15, 6, 3, 20, 32, 5, 10, 0)
s = 123: (0, 5, 18, 6, 15, 14, 4, 24, 21, 6, 11, 0)
s = 124: (0, 3, 17, 9, 11, 7, 6, 24, 16, 3, 10, 0)
s = 125: (0, 3, 20, 5, 24, 6, 4, 23, 42, 4, 18, 0)
s = 126: (0, 2, 23, 8, 19, 10, 3, 20, 25, 5, 13, 0)
s = 127: (0, 5, 32, 8, 15, 12, 3, 21, 17, 3, 10, 0)
s = 128: (0, 3, 23, 7, 10, 12, 4, 21, 23, 3, 21, 0)
s = 129: (0, 2, 21, 6, 10, 14, 4, 30, 19, 8, 11, 0)
s = 130: (0, 3, 18, 10, 23, 11, 3, 24, 27, 4, 19, 0)
s = 131: (0, 3, 17, 6, 15, 9, 4, 26, 29, 3, 9, 0)
s = 132: (0, 4, 12, 9, 9, 8, 2, 34, 28, 5, 10, 0)
s = 133: (0, 4, 24, 7, 18, 7, 3, 17, 20, 4, 19, 0)
s = 134: (0, 2, 23, 11, 16, 9, 5, 32, 18, 5, 18, 0)
s = 135: (0, 2, 20, 9, 14, 9, 4, 21, 41, 3, 13, 0)
s = 136: (0, 3, 24, 6, 13, 7, 3, 14, 21, 6, 18, 0)
s = 137: (0, 5, 29, 7, 13, 10, 3, 18, 26, 5, 13, 0)
s = 138: (0, 3, 27, 7, 14, 6, 3, 20, 47, 4, 18, 0)
s = 139: (0, 2, 33, 6, 16, 9, 3, 14, 16, 4, 14, 0)
s = 140: (0, 4, 26, 13, 16, 8, 5, 24, 28, 4, 20, 0)
s = 141: (0, 4, 24, 7, 20, 7, 5, 14, 35, 6, 15, 0)
s = 142: (0, 3, 22, 7, 19, 11, 3, 23, 42, 7, 9, 0)
s = 143: (0, 4, 18, 6, 11, 15, 3, 22, 33, 5, 15, 0)
s = 144: (0, 4, 22, 6, 17, 9, 4, 14, 16, 6, 16, 0)
s = 145: (0, 4, 16, 6, 19, 13, 4, 25, 36, 5, 13, 0)
s = 146: (0, 3, 41, 12, 25, 8, 6, 18, 29, 7, 12, 0)
s = 147: (0, 5, 28, 7, 23, 7, 4, 11, 23, 3, 15, 0)
s = 148: (0, 3, 27, 8, 20, 8, 3, 19, 28, 4, 20, 0)
s = 149: (0, 3, 16, 8, 16, 5, 4, 20, 20, 4, 17, 0)
s = 150: (0, 4, 19, 10, 15, 7, 2, 26, 26, 5, 13, 0)
s = 151: (0, 4, 24, 6, 24, 8, 2, 17, 20, 3, 22, 0)
s = 152: (0, 4, 19, 9, 12, 12, 3, 16, 25, 4, 16, 0)
s = 153: (0, 4, 37, 6, 22, 13, 3, 21, 35, 4, 12, 0)
s = 154: (0, 3, 19, 8, 9, 13, 3, 27, 18, 3, 8, 0)
s = 155: (0, 3, 26, 6, 20, 5, 5, 18, 18, 5, 11, 0)
s = 156: (0, 3, 14, 7, 19, 6, 4, 22, 40, 3, 22, 0)
s = 157: (0, 6, 22, 8, 11, 8, 4, 13, 33, 4, 15, 0)
s = 158: (0, 2, 19, 7, 24, 8, 4, 22, 30, 5, 11, 0)
s = 159: (0, 4, 16, 11, 14, 5, 3, 15, 25, 5, 19, 0)
s = 160: (0, 4, 22, 5, 15, 9, 2, 16, 20, 4, 24, 0)
s = 161: (0, 3, 15, 11, 9, 14, 5, 23, 19, 6, 14, 0)
s = 162: (0, 4, 16, 6, 19, 10, 3, 31, 22, 6, 15, 0)
s = 163: (0, 3, 19, 5, 16, 12, 3, 22, 27, 6, 11, 0)
s = 164: (0, 3, 17, 7, 13, 13, 2, 21, 28, 4, 19, 0)
s = 165: (0, 4, 16, 5, 14, 10, 4, 16, 41, 5, 17, 0)
s = 166: (0, 3, 22, 8, 17, 7, 3, 23, 21, 5, 20, 0)
s = 167: (0, 5, 25, 7, 11, 7, 3, 25, 27, 5, 14, 0)
s = 168: (0, 3, 23, 8, 16, 10, 3, 31, 21, 5, 12, 0)
s = 169: (0, 2, 28, 11, 12, 7, 4, 12, 28, 4, 10, 0)
s = 170: (0, 3, 25, 7, 17, 5, 3, 21, 36, 5, 16, 0)
s = 171: (0, 5, 26, 12, 20, 5, 5, 22, 25, 4, 20, 0)
s = 172: (0, 3, 16, 6, 16, 11, 4, 28, 15, 3, 13, 0)
s = 173: (0, 4, 16, 6, 21, 8, 4, 23, 17, 6, 13, 0)
s = 174: (0, 4, 31, 6, 23, 9, 5, 18, 20, 4, 10, 0)
s = 175: (0, 3, 25, 9, 9, 7, 4, 21, 28, 3, 12, 0)
s = 176: (0, 3, 16, 7, 20, 8, 3, 16, 32, 4, 14, 0)
s = 177: (0, 4, 14, 8, 23, 6, 3, 20, 25, 5, 17, 0)
s = 178: (0, 3, 27, 7, 10, 6, 4, 20, 20, 4, 17, 0)
s = 179: (0, 2, 23, 7, 16, 7, 5, 11, 27, 5, 13, 0)
s = 180: (0, 4, 18, 7, 24, 7, 3, 14, 23, 6, 24, 0)
s = 181: (0, 4, 17, 8, 19, 10, 6, 19, 23, 5, 20, 0)
s = 182: (0, 5, 16, 8, 11, 8, 4, 17, 20, 4, 13, 0)
s = 183: (0, 4, 15, 8, 10, 10, 5, 13, 35, 6, 12, 0)
s = 184: (0, 6, 26, 8, 16, 6, 4, 23, 19, 5, 13, 0)
s = 185: (0, 4, 28, 10, 25, 12, 4, 32, 32, 7, 20, 0)
s = 186: (0, 5, 28, 8, 14, 11, 4, 15, 23, 5, 19, 0)
s = 187: (0, 4, 17, 10, 22, 9, 3, 34, 25, 5, 10, 0)
s = 188: (0, 5, 20, 8, 10, 11, 6, 23, 27, 3, 17, 0)
s = 189: (0, 3, 39, 8, 20, 11, 3, 20, 32, 6, 20, 0)
s = 190: (0, 5, 22, 8, 16, 7, 4, 29, 41, 4, 13, 0)
s = 191: (0, 3, 12, 10, 15, 8, 4, 15, 26, 4, 14, 0)
s = 192: (0, 4, 27, 6, 16, 5, 2, 19, 17, 3, 12, 0)
s = 193: (0, 5, 19, 8, 15, 10, 3, 23, 18, 4, 11, 0)
s = 194: (0, 5, 15, 10, 20, 7, 4, 23, 25, 4, 22, 0)
s = 195: (0, 5, 28, 10, 23, 9, 3, 20, 31, 5, 17, 0)
s = 196: (0, 3, 19, 7, 20, 10, 4, 17, 18, 4, 22, 0)
s = 197: (0, 4, 30, 7, 13, 6, 5, 16, 35, 4, 16, 0)
s = 198: (0, 3, 25, 6, 11, 6, 4, 14, 38, 4, 10, 0)
s = 199: (0, 4, 20, 7, 23, 8, 2, 25, 18, 5, 14, 0)
s = 200: (0, 2, 25, 6, 13, 6, 4, 14, 20, 4, 11, 0)
------------------------------------------------------------------------
RESOURCE k = 3
s = 1: (0, 7, 14, 7, 8, 10, 13, 28, 18, 14, 12, 0)
s = 2: (0, 14, 22, 6, 12, 10, 9, 17, 24, 10, 10, 0)
s = 3: (0, 11, 34, 9, 13, 10, 8, 26, 14, 5, 12, 0)
s = 4: (0, 9, 30, 5, 11, 8, 9, 16, 14, 7, 13, 0)
s = 5: (0, 5, 19, 9, 17, 9, 6, 12, 15, 10, 11, 0)
s = 6: (0, 7, 21, 6, 14, 6, 9, 26, 20, 6, 11, 0)
s = 7: (0, 8, 29, 12, 11, 9, 6, 14, 13, 9, 10, 0)
s = 8: (0, 9, 36, 9, 15, 14, 6, 34, 18, 7, 10, 0)
s = 9: (0, 8, 28, 11, 12, 14, 13, 32, 15, 7, 13, 0)
s = 10: (0, 7, 31, 9, 14, 11, 11, 28, 14, 11, 7, 0)
s = 11: (0, 7, 14, 12, 10, 10, 6, 22, 31, 8, 10, 0)
s = 12: (0, 9, 24, 12, 16, 9, 13, 26, 15, 7, 15, 0)
s = 13: (0, 9, 15, 8, 7, 7, 10, 20, 27, 8, 11, 0)
s = 14: (0, 10, 32, 9, 12, 9, 7, 26, 12, 6, 13, 0)
s = 15: (0, 5, 21, 6, 10, 7, 11, 14, 21, 9, 7, 0)
s = 16: (0, 7, 24, 13, 16, 9, 10, 14, 17, 10, 7, 0)
s = 17: (0, 12, 22, 12, 11, 12, 17, 24, 21, 8, 8, 0)
s = 18: (0, 9, 29, 12, 8, 15, 12, 19, 15, 9, 12, 0)
s = 19: (0, 8, 26, 11, 14, 6, 11, 19, 31, 4, 6, 0)
s = 20: (0, 6, 27, 11, 11, 18, 9, 14, 27, 6, 11, 0)
s = 21: (0, 7, 31, 8, 13, 12, 11, 12, 22, 8, 8, 0)
s = 22: (0, 5, 28, 8, 8, 7, 6, 13, 17, 8, 15, 0)
s = 23: (0, 8, 18, 11, 10, 9, 9, 27, 16, 5, 11, 0)
s = 24: (0, 11, 27, 6, 19, 13, 11, 15, 17, 5, 12, 0)
s = 25: (0, 11, 21, 7, 12, 11, 8, 19, 21, 7, 12, 0)
s = 26: (0, 8, 22, 6, 10, 10, 9, 19, 10, 8, 10, 0)
s = 27: (0, 8, 17, 11, 15, 7, 12, 27, 17, 5, 14, 0)
s = 28: (0, 7, 29, 11, 12, 9, 12, 19, 21, 9, 8, 0)
s = 29: (0, 9, 24, 8, 10, 12, 7, 16, 23, 5, 12, 0)
s = 30: (0, 7, 18, 10, 16, 11, 7, 24, 29, 9, 9, 0)
s = 31: (0, 4, 18, 12, 8, 11, 6, 14, 22, 8, 11, 0)
s = 32: (0, 12, 23, 6, 18, 6, 8, 25, 18, 9, 11, 0)
s = 33: (0, 7, 19, 10, 21, 10, 14, 12, 18, 5, 10, 0)
s = 34: (0, 12, 28, 9, 14, 10, 11, 14, 14, 5, 11, 0)
s = 35: (0, 10, 29, 12, 18, 12, 8, 29, 18, 5, 9, 0)
s = 36: (0, 6, 32, 8, 9, 9, 11, 13, 12, 5, 12, 0)
s = 37: (0, 5, 24, 7, 12, 11, 6, 16, 24, 9, 10, 0)
s = 38: (0, 10, 14, 9, 9, 14, 10, 13, 15, 6, 8, 0)
s = 39: (0, 6, 23, 12, 15, 8, 6, 17, 14, 7, 12, 0)
s = 40: (0, 10, 19, 13, 10, 12, 10, 12, 18, 9, 12, 0)
s = 41: (0, 12, 14, 14, 8, 9, 15, 15, 22, 9, 16, 0)
s = 42: (0, 7, 20, 8, 14, 10, 10, 20, 24, 7, 9, 0)
s = 43: (0, 7, 25, 8, 9, 9, 9, 19, 33, 12, 11, 0)
s = 44: (0, 6, 20, 6, 13, 10, 7, 21, 15, 6, 9, 0)
s = 45: (0, 9, 24, 12, 12, 9, 11, 12, 25, 7, 9, 0)
s = 46: (0, 9, 18, 9, 7, 10, 7, 17, 13, 8, 8, 0)
s = 47: (0, 14, 19, 7, 13, 8, 7, 22, 27, 8, 12, 0)
s = 48: (0, 4, 24, 10, 9, 10, 6, 18, 17, 5, 12, 0)
s = 49: (0, 11, 24, 8, 16, 14, 10, 20, 13, 8, 10, 0)
s = 50: (0, 6, 34, 6, 7, 16, 8, 13, 14, 6, 10, 0)
s = 51: (0, 7, 16, 11, 10, 11, 11, 35, 21, 7, 9, 0)
s = 52: (0, 6, 27, 12, 10, 8, 9, 20, 25, 10, 10, 0)
s = 53: (0, 7, 13, 12, 16, 12, 9, 29, 20, 5, 10, 0)
s = 54: (0, 7, 36, 13, 16, 11, 10, 21, 15, 8, 10, 0)
s = 55: (0, 12, 17, 12, 12, 13, 10, 21, 21, 8, 7, 0)
s = 56: (0, 5, 29, 6, 14, 13, 7, 20, 13, 7, 19, 0)
s = 57: (0, 8, 27, 9, 9, 7, 6, 16, 21, 9, 11, 0)
s = 58: (0, 5, 12, 7, 15, 9, 6, 29, 16, 8, 6, 0)
s = 59: (0, 7, 19, 5, 14, 8, 9, 14, 15, 13, 9, 0)
s = 60: (0, 8, 14, 5, 10, 12, 9, 24, 17, 5, 7, 0)
s = 61: (0, 5, 15, 6, 9, 9, 10, 27, 29, 6, 10, 0)
s = 62: (0, 7, 30, 11, 12, 11, 9, 31, 19, 6, 9, 0)
s = 63: (0, 7, 19, 8, 14, 8, 7, 16, 20, 9, 7, 0)
s = 64: (0, 9, 12, 6, 12, 10, 6, 16, 20, 10, 7, 0)
s = 65: (0, 7, 23, 10, 15, 7, 9, 24, 12, 6, 8, 0)
s = 66: (0, 11, 17, 6, 9, 11, 9, 21, 19, 8, 9, 0)
s = 67: (0, 6, 23, 12, 13, 16, 7, 14, 21, 10, 6, 0)
s = 68: (0, 10, 39, 13, 14, 14, 11, 21, 25, 8, 9, 0)
s = 69: (0, 4, 12, 6, 9, 7, 12, 20, 25, 7, 12, 0)
s = 70: (0, 7, 18, 11, 9, 7, 9, 36, 16, 9, 7, 0)
s = 71: (0, 8, 19, 8, 8, 9, 13, 17, 29, 5, 11, 0)
s = 72: (0, 12, 15, 5, 12, 10, 11, 19, 21, 5, 10, 0)
s = 73: (0, 4, 20, 11, 12, 9, 10, 18, 18, 8, 7, 0)
s = 74: (0, 7, 22, 10, 13, 7, 16, 29, 20, 8, 7, 0)
s = 75: (0, 7, 16, 8, 8, 11, 11, 24, 18, 12, 11, 0)
s = 76: (0, 7, 15, 11, 13, 11, 11, 16, 23, 7, 9, 0)
s = 77: (0, 10, 16, 6, 9, 14, 10, 17, 16, 8, 12, 0)
s = 78: (0, 10, 24, 10, 10, 8, 11, 20, 35, 11, 11, 0)
s = 79: (0, 6, 25, 7, 12, 6, 11, 13, 14, 9, 7, 0)
s = 80: (0, 9, 30, 11, 14, 13, 10, 16, 16, 7, 10, 0)
s = 81: (0, 11, 38, 8, 10, 11, 8, 29, 18, 10, 10, 0)
s = 82: (0, 8, 22, 11, 13, 7, 10, 16, 18, 10, 10, 0)
s = 83: (0, 9, 13, 6, 18, 7, 9, 18, 15, 4, 13, 0)
s = 84: (0, 6, 27, 8, 13, 10, 6, 15, 11, 7, 7, 0)
s = 85: (0, 6, 17, 13, 11, 17, 8, 12, 14, 9, 7, 0)
s = 86: (0, 5, 24, 8, 9, 9, 11, 21, 16, 8, 12, 0)
s = 87: (0, 9, 13, 12, 12, 8, 7, 23, 24, 8, 12, 0)
s = 88: (0, 7, 16, 18, 16, 10, 7, 21, 13, 7, 13, 0)
s = 89: (0, 6, 27, 13, 13, 9, 8, 14, 14, 7, 8, 0)
s = 90: (0, 9, 28, 10, 10, 16, 11, 19, 14, 6, 7, 0)
s = 91: (0, 6, 18, 8, 17, 15, 10, 24, 25, 12, 7, 0)
s = 92: (0, 9, 18, 9, 14, 6, 8, 20, 11, 5, 11, 0)
s = 93: (0, 6, 25, 8, 7, 12, 8, 26, 19, 4, 11, 0)
s = 94: (0, 5, 24, 9, 10, 9, 10, 14, 25, 12, 15, 0)
s = 95: (0, 7, 23, 12, 13, 8, 7, 13, 16, 5, 10, 0)
s = 96: (0, 5, 19, 8, 11, 7, 15, 14, 16, 6, 13, 0)
s = 97: (0, 6, 14, 10, 13, 15, 8, 23, 13, 8, 16, 0)
s = 98: (0, 4, 19, 10, 13, 15, 14, 19, 26, 11, 8, 0)
s = 99: (0, 4, 16, 7, 16, 11, 10, 17, 27, 9, 11, 0)
s = 100: (0, 6, 32, 9, 15, 15, 7, 20, 12, 4, 7, 0)
s = 101: (0, 4, 29, 13, 12, 9, 10, 16, 15, 7, 8, 0)
s = 102: (0, 6, 14, 6, 11, 13, 8, 29, 14, 5, 14, 0)
s = 103: (0, 6, 25, 6, 13, 13, 7, 21, 22, 6, 7, 0)
s = 104: (0, 9, 31, 12, 11, 9, 9, 25, 18, 8, 10, 0)
s = 105: (0, 5, 21, 7, 9, 16, 12, 17, 12, 8, 8, 0)
s = 106: (0, 9, 20, 10, 19, 14, 10, 20, 24, 9, 16, 0)
s = 107: (0, 10, 34, 7, 13, 11, 15, 21, 12, 7, 14, 0)
s = 108: (0, 10, 13, 8, 14, 12, 8, 15, 12, 6, 9, 0)
s = 109: (0, 7, 21, 9, 13, 10, 7, 15, 14, 8, 7, 0)
s = 110: (0, 10, 20, 12, 15, 16, 7, 21, 10, 9, 10, 0)
s = 111: (0, 5, 17, 7, 23, 9, 12, 18, 17, 6, 14, 0)
s = 112: (0, 6, 20, 7, 17, 10, 17, 20, 14, 6, 12, 0)
s = 113: (0, 6, 16, 7, 7, 12, 7, 16, 19, 7, 13, 0)
s = 114: (0, 6, 17, 13, 10, 11, 12, 13, 20, 7, 9, 0)
s = 115: (0, 11, 27, 8, 8, 12, 12, 14, 21, 9, 7, 0)
s = 116: (0, 10, 17, 7, 8, 10, 9, 30, 28, 9, 17, 0)
s = 117: (0, 5, 24, 8, 11, 8, 16, 17, 22, 7, 10, 0)
s = 118: (0, 5, 17, 6, 16, 10, 7, 22, 22, 6, 12, 0)
s = 119: (0, 7, 18, 7, 21, 12, 8, 17, 17, 11, 12, 0)
s = 120: (0, 9, 20, 13, 16, 11, 7, 26, 20, 10, 13, 0)
s = 121: (0, 7, 20, 7, 16, 7, 7, 37, 20, 10, 8, 0)
s = 122: (0, 5, 19, 10, 11, 7, 7, 20, 22, 8, 7, 0)
s = 123: (0, 10, 18, 7, 11, 18, 10, 24, 14, 10, 8, 0)
s = 124: (0, 6, 17, 11, 8, 8, 17, 24, 11, 5, 7, 0)
s = 125: (0, 7, 20, 7, 18, 7, 10, 23, 28, 7, 13, 0)
s = 126: (0, 5, 23, 10, 15, 12, 9, 20, 17, 9, 9, 0)
s = 127: (0, 10, 32, 10, 11, 15, 7, 21, 11, 6, 8, 0)
s = 128: (0, 6, 23, 9, 7, 15, 12, 21, 15, 6, 15, 0)
s = 129: (0, 5, 21, 8, 8, 18, 11, 30, 13, 13, 8, 0)
s = 130: (0, 6, 18, 12, 17, 13, 8, 24, 18, 7, 14, 0)
s = 131: (0, 7, 17, 8, 11, 11, 11, 26, 20, 6, 6, 0)
s = 132: (0, 8, 12, 11, 7, 10, 6, 34, 19, 8, 7, 0)
s = 133: (0, 8, 24, 8, 14, 9, 7, 17, 13, 6, 14, 0)
s = 134: (0, 5, 23, 14, 12, 11, 13, 32, 12, 8, 13, 0)
s = 135: (0, 5, 20, 12, 11, 11, 11, 21, 27, 5, 10, 0)
s = 136: (0, 6, 24, 8, 10, 8, 8, 14, 14, 11, 13, 0)
s = 137: (0, 10, 29, 9, 10, 12, 8, 18, 17, 8, 9, 0)
s = 138: (0, 6, 27, 9, 11, 8, 9, 20, 32, 7, 13, 0)
s = 139: (0, 5, 33, 7, 12, 11, 9, 14, 11, 7, 10, 0)
s = 140: (0, 8, 26, 17, 12, 10, 14, 24, 19, 6, 14, 0)
s = 141: (0, 8, 24, 9, 15, 9, 13, 14, 24, 10, 11, 0)
s = 142: (0, 5, 22, 9, 14, 14, 7, 23, 28, 11, 6, 0)
s = 143: (0, 8, 18, 7, 9, 19, 9, 22, 22, 8, 11, 0)
s = 144: (0, 10, 22, 7, 13, 11, 11, 14, 11, 11, 11, 0)
s = 145: (0, 8, 16, 7, 14, 16, 11, 25, 24, 8, 10, 0)
s = 146: (0, 6, 41, 15, 19, 9, 17, 18, 20, 12, 9, 0)
s = 147: (0, 11, 28, 9, 18, 8, 12, 11, 15, 5, 11, 0)
s = 148: (0, 5, 27, 10, 15, 10, 7, 19, 19, 7, 14, 0)
s = 149: (0, 7, 16, 10, 12, 6, 10, 20, 13, 7, 12, 0)
s = 150: (0, 9, 19, 12, 11, 8, 6, 26, 18, 9, 10, 0)
s = 151: (0, 9, 24, 8, 18, 9, 6, 17, 13, 4, 16, 0)
s = 152: (0, 8, 19, 11, 9, 15, 9, 16, 17, 7, 12, 0)
s = 153: (0, 10, 37, 8, 16, 17, 9, 21, 24, 7, 9, 0)
s = 154: (0, 5, 19, 10, 7, 16, 7, 27, 12, 5, 6, 0)
s = 155: (0, 6, 26, 7, 15, 6, 13, 18, 12, 8, 8, 0)
s = 156: (0, 6, 14, 9, 15, 7, 10, 22, 27, 5, 16, 0)
s = 157: (0, 13, 22, 10, 9, 10, 11, 13, 22, 7, 11, 0)
s = 158: (0, 5, 19, 9, 18, 10, 10, 22, 20, 8, 8, 0)
s = 159: (0, 9, 16, 14, 11, 6, 7, 15, 17, 8, 14, 0)
s = 160: (0, 9, 22, 7, 11, 11, 6, 16, 14, 6, 17, 0)
s = 161: (0, 6, 15, 14, 7, 17, 14, 23, 13, 10, 10, 0)
s = 162: (0, 10, 16, 7, 14, 13, 8, 31, 15, 9, 11, 0)
s = 163: (0, 6, 19, 7, 12, 15, 7, 22, 18, 10, 8, 0)
s = 164: (0, 7, 17, 9, 10, 16, 6, 21, 19, 7, 14, 0)
s = 165: (0, 9, 16, 6, 11, 12, 11, 16, 28, 8, 12, 0)
s = 166: (0, 6, 22, 10, 13, 9, 7, 23, 14, 9, 15, 0)
s = 167: (0, 11, 25, 9, 9, 9, 8, 25, 18, 8, 10, 0)
s = 168: (0, 5, 23, 10, 12, 12, 9, 31, 14, 9, 8, 0)
s = 169: (0, 4, 28, 14, 9, 9, 10, 12, 19, 7, 7, 0)
s = 170: (0, 6, 25, 8, 13, 7, 9, 21, 24, 9, 12, 0)
s = 171: (0, 10, 26, 15, 15, 6, 13, 22, 17, 7, 15, 0)
s = 172: (0, 6, 16, 8, 12, 14, 12, 28, 10, 5, 9, 0)
s = 173: (0, 8, 16, 8, 16, 10, 12, 23, 12, 11, 10, 0)
s = 174: (0, 8, 31, 7, 17, 11, 13, 18, 14, 6, 7, 0)
s = 175: (0, 7, 25, 12, 7, 9, 10, 21, 19, 5, 9, 0)
s = 176: (0, 5, 16, 9, 15, 9, 8, 16, 22, 6, 10, 0)
s = 177: (0, 9, 14, 10, 18, 8, 7, 20, 17, 9, 12, 0)
s = 178: (0, 7, 27, 9, 7, 7, 11, 20, 13, 6, 13, 0)
s = 179: (0, 4, 23, 8, 12, 8, 14, 11, 18, 8, 9, 0)
s = 180: (0, 8, 18, 8, 18, 9, 7, 14, 15, 9, 17, 0)
s = 181: (0, 9, 17, 10, 14, 13, 16, 19, 15, 9, 15, 0)
s = 182: (0, 11, 16, 10, 9, 9, 10, 17, 14, 7, 9, 0)
s = 183: (0, 8, 15, 11, 8, 12, 14, 13, 23, 10, 9, 0)
s = 184: (0, 13, 26, 10, 12, 7, 11, 23, 13, 8, 10, 0)
s = 185: (0, 9, 28, 13, 19, 14, 12, 32, 21, 11, 15, 0)
s = 186: (0, 10, 28, 10, 10, 13, 11, 15, 16, 9, 14, 0)
s = 187: (0, 8, 17, 13, 16, 11, 7, 34, 17, 9, 8, 0)
s = 188: (0, 10, 20, 10, 8, 13, 16, 23, 18, 6, 13, 0)
s = 189: (0, 6, 39, 11, 15, 14, 9, 20, 21, 10, 15, 0)
s = 190: (0, 12, 22, 11, 12, 8, 11, 29, 28, 6, 9, 0)
s = 191: (0, 7, 12, 13, 11, 9, 11, 15, 18, 7, 10, 0)
s = 192: (0, 8, 27, 8, 12, 7, 6, 19, 11, 5, 9, 0)
s = 193: (0, 12, 19, 10, 12, 12, 8, 23, 12, 7, 8, 0)
s = 194: (0, 10, 15, 12, 15, 8, 11, 23, 17, 7, 16, 0)
s = 195: (0, 11, 28, 13, 18, 11, 9, 20, 21, 8, 13, 0)
s = 196: (0, 6, 19, 9, 15, 12, 10, 17, 12, 7, 16, 0)
s = 197: (0, 9, 30, 9, 10, 7, 14, 16, 24, 6, 11, 0)
s = 198: (0, 6, 25, 8, 8, 7, 10, 14, 25, 6, 7, 0)
s = 199: (0, 8, 20, 9, 18, 9, 6, 25, 12, 8, 10, 0)
s = 200: (0, 4, 25, 8, 10, 7, 10, 14, 13, 7, 8, 0)
************************************************************************
ES/LS-VALUES:
jobnr.   ES(i)    LS(i)
------------------------------------------------------------------------
  0        0        0
  1        0       54
  2        0       52
  3        0       62
  4        5       58
  5        2       56
  6        8       62
  7        3       58
  8       10       64
  9        5       68
 10       10       66
 11       15       70
************************************************************************
BIG-M-VALUES:
M1 = 40, M2 = 199
************************************************************************
